(declare-rel BinOpExp (expr binop expr expr))
(declare-rel Return (node expr))
(declare-rel EvalLv (node lval loc))
(declare-rel AddrOf (expr lval))
(declare-rel ErrTrace (node node))
(declare-rel Arg (arg_list int expr))
(declare-rel Field (lval lval))
(declare-rel Copy (node lval lval))
(declare-rel UnOpExp (expr unop expr))
(declare-rel CallExp (expr expr arg_list))
(declare-rel DUEdge (node node))
(declare-rel Set (node lval expr))
(declare-rel LibCallExp (expr expr arg_list))
(declare-rel LvalExp (expr lval))
(declare-rel Skip (node))
(declare-rel Assume (node expr))
(rule (AddrOf 25 26))
(rule (AddrOf 27 28))
(rule (AddrOf 29 30))
(rule (Arg 31 32 33))
(rule (Arg 31 34 27))
(rule (Arg 31 35 36))
(rule (Arg 37 38 39))
(rule (Arg 37 40 41))
(rule (Arg 37 42 43))
(rule (Arg 44 45 46))
(rule (Arg 44 47 48))
(rule (Arg 49 50 33))
(rule (Arg 49 51 25))
(rule (Arg 49 52 53))
(rule (Arg 54 55 33))
(rule (Arg 54 56 27))
(rule (Arg 54 57 36))
(rule (Arg 58 59 33))
(rule (Arg 58 60 29))
(rule (Arg 58 61 36))
(rule (Assume 62 63))
(rule (Assume 64 65))
(rule (Assume 66 67))
(rule (Assume 68 69))
(rule (Assume 70 71))
(rule (Assume 72 73))
(rule (Assume 74 75))
(rule (Assume 76 77))
(rule (Assume 78 79))
(rule (Assume 80 81))
(rule (Assume 82 83))
(rule (Assume 84 85))
(rule (Assume 86 87))
(rule (Assume 88 89))
(rule (Assume 90 91))
(rule (Assume 92 93))
(rule (Assume 94 95))
(rule (Assume 96 97))
(rule (Assume 98 99))
(rule (Assume 100 101))
(rule (Assume 102 103))
(rule (Assume 104 105))
(rule (Assume 106 107))
(rule (Assume 108 109))
(rule (BinOpExp 83 16 110 111))
(rule (BinOpExp 93 15 110 53))
(rule (BinOpExp 71 16 110 53))
(rule (BinOpExp 79 16 110 112))
(rule (BinOpExp 97 15 110 113))
(rule (BinOpExp 114 11 33 115))
(rule (BinOpExp 67 16 110 113))
(rule (BinOpExp 105 15 110 112))
(rule (BinOpExp 75 16 110 116))
(rule (BinOpExp 117 16 110 118))
(rule (BinOpExp 101 15 110 111))
(rule (BinOpExp 109 15 110 118))
(rule (BinOpExp 89 15 110 116))
(rule (BinOpExp 119 7 120 121))
(rule (BinOpExp 120 17 122 123))
(rule (BinOpExp 122 0 124 125))
(rule (BinOpExp 124 6 126 110))
(rule (CallExp 127 128 44))
(rule (Copy 129 26 28))
(rule (Copy 130 30 28))
(rule (Copy 131 132 26))
(rule (DUEdge 133 134))
(rule (DUEdge 135 133))
(rule (DUEdge 136 137))
(rule (DUEdge 136 138))
(rule (DUEdge 136 139))
(rule (DUEdge 136 129))
(rule (DUEdge 136 130))
(rule (DUEdge 137 138))
(rule (DUEdge 137 64))
(rule (DUEdge 137 66))
(rule (DUEdge 137 131))
(rule (DUEdge 138 140))
(rule (DUEdge 138 141))
(rule (DUEdge 62 142))
(rule (DUEdge 62 143))
(rule (DUEdge 62 139))
(rule (DUEdge 62 144))
(rule (DUEdge 64 131))
(rule (DUEdge 66 68))
(rule (DUEdge 66 70))
(rule (DUEdge 68 131))
(rule (DUEdge 70 72))
(rule (DUEdge 70 74))
(rule (DUEdge 72 131))
(rule (DUEdge 74 76))
(rule (DUEdge 74 78))
(rule (DUEdge 76 131))
(rule (DUEdge 78 80))
(rule (DUEdge 78 82))
(rule (DUEdge 80 131))
(rule (DUEdge 82 84))
(rule (DUEdge 84 131))
(rule (DUEdge 86 90))
(rule (DUEdge 86 92))
(rule (DUEdge 88 145))
(rule (DUEdge 90 94))
(rule (DUEdge 90 96))
(rule (DUEdge 92 145))
(rule (DUEdge 94 98))
(rule (DUEdge 94 100))
(rule (DUEdge 96 145))
(rule (DUEdge 98 102))
(rule (DUEdge 98 104))
(rule (DUEdge 100 146))
(rule (DUEdge 102 106))
(rule (DUEdge 102 108))
(rule (DUEdge 104 146))
(rule (DUEdge 106 138))
(rule (DUEdge 108 138))
(rule (DUEdge 142 136))
(rule (DUEdge 143 136))
(rule (DUEdge 139 129))
(rule (DUEdge 129 137))
(rule (DUEdge 144 137))
(rule (DUEdge 144 130))
(rule (DUEdge 130 137))
(rule (DUEdge 131 86))
(rule (DUEdge 131 88))
(rule (DUEdge 131 140))
(rule (DUEdge 145 138))
(rule (DUEdge 146 138))
(rule (DUEdge 141 135))
(rule (DUEdge 147 62))
(rule (DUEdge 147 141))
(rule (DUEdge 148 149))
(rule (DUEdge 150 149))
(rule (DUEdge 151 149))
(rule (DUEdge 152 149))
(rule (DUEdge 134 148))
(rule (DUEdge 134 150))
(rule (DUEdge 134 151))
(rule (DUEdge 134 152))
(rule (DUEdge 149 147))
(rule (EvalLv 133 153 154))
(rule (EvalLv 133 155 156))
(rule (EvalLv 133 157 158))
(rule (EvalLv 133 159 160))
(rule (EvalLv 62 161 162))
(rule (EvalLv 64 30 163))
(rule (EvalLv 64 164 165))
(rule (EvalLv 66 30 163))
(rule (EvalLv 66 164 165))
(rule (EvalLv 68 30 163))
(rule (EvalLv 68 164 165))
(rule (EvalLv 70 30 163))
(rule (EvalLv 70 164 165))
(rule (EvalLv 72 30 163))
(rule (EvalLv 72 164 165))
(rule (EvalLv 74 30 163))
(rule (EvalLv 74 164 165))
(rule (EvalLv 76 30 163))
(rule (EvalLv 76 164 165))
(rule (EvalLv 78 30 163))
(rule (EvalLv 78 164 165))
(rule (EvalLv 80 30 163))
(rule (EvalLv 80 164 165))
(rule (EvalLv 82 30 163))
(rule (EvalLv 82 164 165))
(rule (EvalLv 84 30 163))
(rule (EvalLv 84 164 165))
(rule (EvalLv 86 30 163))
(rule (EvalLv 86 164 165))
(rule (EvalLv 88 30 163))
(rule (EvalLv 88 164 165))
(rule (EvalLv 90 30 163))
(rule (EvalLv 90 164 165))
(rule (EvalLv 92 30 163))
(rule (EvalLv 92 164 165))
(rule (EvalLv 94 30 163))
(rule (EvalLv 94 164 165))
(rule (EvalLv 96 30 163))
(rule (EvalLv 96 164 165))
(rule (EvalLv 98 30 163))
(rule (EvalLv 98 164 165))
(rule (EvalLv 100 30 163))
(rule (EvalLv 100 164 165))
(rule (EvalLv 102 30 163))
(rule (EvalLv 102 164 165))
(rule (EvalLv 104 30 163))
(rule (EvalLv 104 164 165))
(rule (EvalLv 106 30 163))
(rule (EvalLv 106 164 165))
(rule (EvalLv 108 30 163))
(rule (EvalLv 108 164 165))
(rule (EvalLv 142 164 165))
(rule (EvalLv 142 166 167))
(rule (EvalLv 142 168 169))
(rule (EvalLv 142 161 162))
(rule (EvalLv 142 26 170))
(rule (EvalLv 143 30 163))
(rule (EvalLv 143 164 165))
(rule (EvalLv 143 166 167))
(rule (EvalLv 143 168 169))
(rule (EvalLv 143 161 162))
(rule (EvalLv 139 166 167))
(rule (EvalLv 139 168 169))
(rule (EvalLv 139 161 162))
(rule (EvalLv 139 28 171))
(rule (EvalLv 129 164 165))
(rule (EvalLv 129 26 170))
(rule (EvalLv 129 28 171))
(rule (EvalLv 144 166 167))
(rule (EvalLv 144 168 169))
(rule (EvalLv 144 161 162))
(rule (EvalLv 144 28 171))
(rule (EvalLv 130 30 163))
(rule (EvalLv 130 164 165))
(rule (EvalLv 130 28 171))
(rule (EvalLv 131 164 165))
(rule (EvalLv 131 26 170))
(rule (EvalLv 131 132 172))
(rule (EvalLv 145 173 174))
(rule (EvalLv 146 173 174))
(rule (EvalLv 140 30 163))
(rule (EvalLv 140 164 165))
(rule (EvalLv 140 132 172))
(rule (EvalLv 140 175 176))
(rule (EvalLv 141 177 178))
(rule (EvalLv 141 179 180))
(rule (EvalLv 141 181 182))
(rule (EvalLv 141 183 184))
(rule (EvalLv 148 185 186))
(rule (EvalLv 150 187 188))
(rule (EvalLv 151 189 190))
(rule (EvalLv 152 191 192))
(rule (Field 30 164))
(rule (Field 26 164))
(rule (LibCallExp 193 194 49))
(rule (LibCallExp 195 194 54))
(rule (LibCallExp 196 194 58))
(rule (LibCallExp 197 194 31))
(rule (LibCallExp 198 199 37))
(rule (LvalExp 199 155))
(rule (LvalExp 39 157))
(rule (LvalExp 41 159))
(rule (LvalExp 200 185))
(rule (LvalExp 201 187))
(rule (LvalExp 202 191))
(rule (LvalExp 110 30))
(rule (LvalExp 128 179))
(rule (LvalExp 46 181))
(rule (LvalExp 48 183))
(rule (LvalExp 194 168))
(rule (LvalExp 33 161))
(rule (LvalExp 203 28))
(rule (LvalExp 204 26))
(rule (LvalExp 205 189))
(rule (LvalExp 126 132))
(rule (Return 148 200))
(rule (Return 150 201))
(rule (Return 151 205))
(rule (Return 152 202))
(rule (Set 133 153 198))
(rule (Set 142 166 193))
(rule (Set 143 166 196))
(rule (Set 139 166 195))
(rule (Set 129 26 203))
(rule (Set 144 166 197))
(rule (Set 130 30 203))
(rule (Set 131 132 204))
(rule (Set 145 173 113))
(rule (Set 146 173 206))
(rule (Set 140 175 119))
(rule (Set 141 177 127))
(rule (Skip 136))
(rule (Skip 137))
(rule (Skip 138))
(rule (Skip 147))
(rule (UnOpExp 69 23 71))
(rule (UnOpExp 91 23 93))
(rule (UnOpExp 77 23 79))
(rule (UnOpExp 87 23 89))
(rule (UnOpExp 95 23 97))
(rule (UnOpExp 63 23 114))
(rule (UnOpExp 107 23 109))
(rule (UnOpExp 65 23 67))
(rule (UnOpExp 103 23 105))
(rule (UnOpExp 73 23 75))
(rule (UnOpExp 85 23 117))
(rule (UnOpExp 99 23 101))
(rule (UnOpExp 81 23 83))
(rule (=> (and (Set 140 175 119)
         (Set 131 132 204)
         (Set 130 30 203)
         (Set 143 166 196)
         (LvalExp 126 132)
         (LvalExp 110 30)
         (LibCallExp 196 194 58)
         (EvalLv 140 132 172)
         (EvalLv 140 30 163)
         (EvalLv 131 132 172)
         (EvalLv 130 30 163)
         (EvalLv 143 30 163)
         (DUEdge 131 140)
         (BinOpExp 124 6 126 110)
         (BinOpExp 122 0 124 125)
         (BinOpExp 120 17 122 123)
         (BinOpExp 119 7 120 121)
         (Arg 58 60 29)
         (AddrOf 29 30))
    (ErrTrace 144 140)))
